extractfix/jasper/CVE-2016-8691/components/m.smt2
(declare-const rvalue_m (_ BitVec 32))
(declare-const lvalue_m (_ BitVec 32))
(declare-const rreturn (_ BitVec 32))
(declare-const lreturn (_ BitVec 32))
(assert (and (= rreturn rvalue_m) (= lreturn lvalue_m)))